25° run output:
{
    "Function": "euclidA300.tsp",
    "Problem dimension": [
        262,
        210,
        207,
        233,
        205,
        115,
        239,
        83,
        53,
        56,
        155,
        203,
        110,
        156,
        129,
        276,
        220,
        51,
        251,
        231,
        223,
        171,
        275,
        287,
        62,
        140,
        277,
        222,
        245,
        105,
        272,
        227,
        124,
        209,
        60,
        160,
        14,
        274,
        84,
        279,
        298,
        94,
        206,
        197,
        167,
        281,
        24,
        244,
        299,
        76,
        154,
        142,
        238,
        44,
        141,
        158,
        99,
        196,
        213,
        113,
        232,
        103,
        126,
        37,
        7,
        117,
        176,
        253,
        189,
        75,
        65,
        12,
        106,
        98,
        257,
        146,
        127,
        286,
        282,
        111,
        67,
        26,
        264,
        261,
        119,
        72,
        172,
        212,
        89,
        116,
        263,
        30,
        269,
        23,
        49,
        5,
        162,
        11,
        18,
        85,
        95,
        120,
        292,
        43,
        248,
        138,
        254,
        241,
        46,
        35,
        145,
        29,
        107,
        249,
        228,
        243,
        186,
        218,
        225,
        159,
        133,
        235,
        10,
        71,
        102,
        93,
        13,
        108,
        204,
        109,
        268,
        97,
        28,
        79,
        242,
        284,
        134,
        27,
        78,
        236,
        3,
        202,
        152,
        0,
        21,
        163,
        182,
        80,
        237,
        69,
        139,
        40,
        165,
        130,
        214,
        297,
        270,
        52,
        112,
        283,
        188,
        48,
        87,
        266,
        68,
        250,
        58,
        90,
        4,
        195,
        66,
        15,
        6,
        278,
        137,
        50,
        295,
        81,
        8,
        31,
        170,
        54,
        57,
        252,
        148,
        96,
        180,
        271,
        234,
        38,
        121,
        101,
        296,
        288,
        164,
        33,
        169,
        255,
        289,
        42,
        147,
        91,
        191,
        88,
        86,
        74,
        246,
        175,
        47,
        114,
        20,
        290,
        221,
        187,
        64,
        265,
        131,
        61,
        294,
        259,
        247,
        178,
        32,
        217,
        229,
        143,
        226,
        144,
        256,
        45,
        136,
        194,
        63,
        219,
        2,
        173,
        22,
        293,
        73,
        82,
        224,
        123,
        104,
        151,
        55,
        41,
        240,
        183,
        201,
        34,
        179,
        199,
        215,
        216,
        9,
        285,
        149,
        190,
        125,
        1,
        260,
        258,
        19,
        280,
        291,
        77,
        192,
        132,
        100,
        153,
        208,
        122,
        70,
        267,
        185,
        230,
        39,
        36,
        25,
        118,
        200,
        168,
        59,
        184,
        135,
        161,
        16,
        17,
        273,
        174,
        211,
        157,
        198,
        193,
        181,
        92,
        150,
        166,
        128,
        177
    ],
    "Global Optimum": 0,
    "Algorithm": "Genetic algorithm",
    "Parameters": {
        "population": 30,
        "offspring": 30,
        "mutation probability": 0.0033333333333333335,
        "crossover probability": 0.9
    },
    "Fitness": 312816,
    "Solution": [
        262,
        210,
        207,
        233,
        205,
        115,
        239,
        83,
        53,
        56,
        155,
        203,
        110,
        156,
        129,
        276,
        220,
        51,
        251,
        231,
        223,
        171,
        275,
        287,
        62,
        140,
        277,
        222,
        245,
        105,
        272,
        227,
        124,
        209,
        60,
        160,
        14,
        274,
        84,
        279,
        298,
        94,
        206,
        197,
        167,
        281,
        24,
        244,
        299,
        76,
        154,
        142,
        238,
        44,
        141,
        158,
        99,
        196,
        213,
        113,
        232,
        103,
        126,
        37,
        7,
        117,
        176,
        253,
        189,
        75,
        65,
        12,
        106,
        98,
        257,
        146,
        127,
        286,
        282,
        111,
        67,
        26,
        264,
        261,
        119,
        72,
        172,
        212,
        89,
        116,
        263,
        30,
        269,
        23,
        49,
        5,
        162,
        11,
        18,
        85,
        95,
        120,
        292,
        43,
        248,
        138,
        254,
        241,
        46,
        35,
        145,
        29,
        107,
        249,
        228,
        243,
        186,
        218,
        225,
        159,
        133,
        235,
        10,
        71,
        102,
        93,
        13,
        108,
        204,
        109,
        268,
        97,
        28,
        79,
        242,
        284,
        134,
        27,
        78,
        236,
        3,
        202,
        152,
        0,
        21,
        163,
        182,
        80,
        237,
        69,
        139,
        40,
        165,
        130,
        214,
        297,
        270,
        52,
        112,
        283,
        188,
        48,
        87,
        266,
        68,
        250,
        58,
        90,
        4,
        195,
        66,
        15,
        6,
        278,
        137,
        50,
        295,
        81,
        8,
        31,
        170,
        54,
        57,
        252,
        148,
        96,
        180,
        271,
        234,
        38,
        121,
        101,
        296,
        288,
        164,
        33,
        169,
        255,
        289,
        42,
        147,
        91,
        191,
        88,
        86,
        74,
        246,
        175,
        47,
        114,
        20,
        290,
        221,
        187,
        64,
        265,
        131,
        61,
        294,
        259,
        247,
        178,
        32,
        217,
        229,
        143,
        226,
        144,
        256,
        45,
        136,
        194,
        63,
        219,
        2,
        173,
        22,
        293,
        73,
        82,
        224,
        123,
        104,
        151,
        55,
        41,
        240,
        183,
        201,
        34,
        179,
        199,
        215,
        216,
        9,
        285,
        149,
        190,
        125,
        1,
        260,
        258,
        19,
        280,
        291,
        77,
        192,
        132,
        100,
        153,
        208,
        122,
        70,
        267,
        185,
        230,
        39,
        36,
        25,
        118,
        200,
        168,
        59,
        184,
        135,
        161,
        16,
        17,
        273,
        174,
        211,
        157,
        198,
        193,
        181,
        92,
        150,
        166,
        128,
        177
    ],
    "Nb of functions evaluations": 200010,
    "Computational time in seconds": 397.28887701034546,
    "Stopping criterion in evaluations": 200000
}